c Generated by SAT Solver
p cnf 8002 2028
101 102 0
201 202 0
301 302 0
401 402 0
501 502 0
601 602 0
701 702 0
801 802 0
901 902 0
1001 1002 0
1101 1102 0
1201 1202 0
1301 1302 0
1401 1402 0
1501 1502 0
1601 1602 0
1701 1702 0
1801 1802 0
1901 1902 0
2001 2002 0
2101 2102 0
2201 2202 0
2301 2302 0
2401 2402 0
2501 2502 0
2601 2602 0
2701 2702 0
2801 2802 0
2901 2902 0
3001 3002 0
3101 3102 0
3201 3202 0
3301 3302 0
3401 3402 0
3501 3502 0
3601 3602 0
3701 3702 0
3801 3802 0
3901 3902 0
4001 4002 0
4101 4102 0
4201 4202 0
4301 4302 0
4401 4402 0
4501 4502 0
4601 4602 0
4701 4702 0
4801 4802 0
4901 4902 0
5001 5002 0
5101 5102 0
5201 5202 0
5301 5302 0
5401 5402 0
5501 5502 0
5601 5602 0
5701 5702 0
5801 5802 0
5901 5902 0
6001 6002 0
6101 6102 0
6201 6202 0
6301 6302 0
6401 6402 0
6501 6502 0
6601 6602 0
6701 6702 0
6801 6802 0
6901 6902 0
7001 7002 0
7101 7102 0
7201 7202 0
7301 7302 0
7401 7402 0
7501 7502 0
7601 7602 0
7701 7702 0
7801 7802 0
7901 7902 0
8001 8002 0
-101 -102 0
-201 -202 0
-301 -302 0
-401 -402 0
-501 -502 0
-601 -602 0
-701 -702 0
-801 -802 0
-901 -902 0
-1001 -1002 0
-1101 -1102 0
-1201 -1202 0
-1301 -1302 0
-1401 -1402 0
-1501 -1502 0
-1601 -1602 0
-1701 -1702 0
-1801 -1802 0
-1901 -1902 0
-2001 -2002 0
-2101 -2102 0
-2201 -2202 0
-2301 -2302 0
-2401 -2402 0
-2501 -2502 0
-2601 -2602 0
-2701 -2702 0
-2801 -2802 0
-2901 -2902 0
-3001 -3002 0
-3101 -3102 0
-3201 -3202 0
-3301 -3302 0
-3401 -3402 0
-3501 -3502 0
-3601 -3602 0
-3701 -3702 0
-3801 -3802 0
-3901 -3902 0
-4001 -4002 0
-4101 -4102 0
-4201 -4202 0
-4301 -4302 0
-4401 -4402 0
-4501 -4502 0
-4601 -4602 0
-4701 -4702 0
-4801 -4802 0
-4901 -4902 0
-5001 -5002 0
-5101 -5102 0
-5201 -5202 0
-5301 -5302 0
-5401 -5402 0
-5501 -5502 0
-5601 -5602 0
-5701 -5702 0
-5801 -5802 0
-5901 -5902 0
-6001 -6002 0
-6101 -6102 0
-6201 -6202 0
-6301 -6302 0
-6401 -6402 0
-6501 -6502 0
-6601 -6602 0
-6701 -6702 0
-6801 -6802 0
-6901 -6902 0
-7001 -7002 0
-7101 -7102 0
-7201 -7202 0
-7301 -7302 0
-7401 -7402 0
-7501 -7502 0
-7601 -7602 0
-7701 -7702 0
-7801 -7802 0
-7901 -7902 0
-8001 -8002 0
-101 -801 0
-102 -802 0
-101 -2401 0
-102 -2402 0
-101 -2501 0
-102 -2502 0
-101 -2601 0
-102 -2602 0
-101 -2701 0
-102 -2702 0
-101 -2801 0
-102 -2802 0
-101 -3101 0
-102 -3102 0
-101 -3701 0
-102 -3702 0
-101 -3901 0
-102 -3902 0
-101 -4301 0
-102 -4302 0
-101 -4501 0
-102 -4502 0
-101 -4801 0
-102 -4802 0
-101 -5301 0
-102 -5302 0
-101 -5501 0
-102 -5502 0
-101 -5701 0
-102 -5702 0
-101 -5901 0
-102 -5902 0
-101 -6101 0
-102 -6102 0
-101 -6201 0
-102 -6202 0
-101 -6301 0
-102 -6302 0
-101 -7301 0
-102 -7302 0
-101 -7501 0
-102 -7502 0
-201 -501 0
-202 -502 0
-201 -701 0
-202 -702 0
-201 -1901 0
-202 -1902 0
-201 -2001 0
-202 -2002 0
-201 -2501 0
-202 -2502 0
-201 -3401 0
-202 -3402 0
-201 -3901 0
-202 -3902 0
-201 -4201 0
-202 -4202 0
-201 -4601 0
-202 -4602 0
-201 -4701 0
-202 -4702 0
-201 -5101 0
-202 -5102 0
-201 -5301 0
-202 -5302 0
-201 -5901 0
-202 -5902 0
-201 -6201 0
-202 -6202 0
-201 -6301 0
-202 -6302 0
-201 -6401 0
-202 -6402 0
-201 -6601 0
-202 -6602 0
-201 -7201 0
-202 -7202 0
-201 -7401 0
-202 -7402 0
-201 -7601 0
-202 -7602 0
-201 -7801 0
-202 -7802 0
-301 -601 0
-302 -602 0
-301 -801 0
-302 -802 0
-301 -1301 0
-302 -1302 0
-301 -1601 0
-302 -1602 0
-301 -1701 0
-302 -1702 0
-301 -2001 0
-302 -2002 0
-301 -2401 0
-302 -2402 0
-301 -2801 0
-302 -2802 0
-301 -3301 0
-302 -3302 0
-301 -3401 0
-302 -3402 0
-301 -3601 0
-302 -3602 0
-301 -4401 0
-302 -4402 0
-301 -4601 0
-302 -4602 0
-301 -4701 0
-302 -4702 0
-301 -4801 0
-302 -4802 0
-301 -5001 0
-302 -5002 0
-301 -5401 0
-302 -5402 0
-301 -6301 0
-302 -6302 0
-301 -6601 0
-302 -6602 0
-301 -6701 0
-302 -6702 0
-301 -6801 0
-302 -6802 0
-301 -7401 0
-302 -7402 0
-301 -7801 0
-302 -7802 0
-301 -8001 0
-302 -8002 0
-401 -801 0
-402 -802 0
-401 -901 0
-402 -902 0
-401 -1701 0
-402 -1702 0
-401 -2101 0
-402 -2102 0
-401 -2301 0
-402 -2302 0
-401 -2501 0
-402 -2502 0
-401 -3401 0
-402 -3402 0
-401 -3701 0
-402 -3702 0
-401 -4001 0
-402 -4002 0
-401 -4201 0
-402 -4202 0
-401 -4401 0
-402 -4402 0
-401 -4901 0
-402 -4902 0
-401 -5301 0
-402 -5302 0
-401 -6201 0
-402 -6202 0
-401 -6601 0
-402 -6602 0
-401 -6701 0
-402 -6702 0
-401 -6801 0
-402 -6802 0
-401 -7001 0
-402 -7002 0
-401 -7201 0
-402 -7202 0
-401 -7401 0
-402 -7402 0
-401 -7701 0
-402 -7702 0
-501 -901 0
-502 -902 0
-501 -1001 0
-502 -1002 0
-501 -1201 0
-502 -1202 0
-501 -1401 0
-502 -1402 0
-501 -1501 0
-502 -1502 0
-501 -1701 0
-502 -1702 0
-501 -1901 0
-502 -1902 0
-501 -2601 0
-502 -2602 0
-501 -3001 0
-502 -3002 0
-501 -3101 0
-502 -3102 0
-501 -3301 0
-502 -3302 0
-501 -3401 0
-502 -3402 0
-501 -4101 0
-502 -4102 0
-501 -4201 0
-502 -4202 0
-501 -4601 0
-502 -4602 0
-501 -4801 0
-502 -4802 0
-501 -5001 0
-502 -5002 0
-501 -5101 0
-502 -5102 0
-501 -5501 0
-502 -5502 0
-501 -5601 0
-502 -5602 0
-501 -5701 0
-502 -5702 0
-501 -5801 0
-502 -5802 0
-501 -6201 0
-502 -6202 0
-501 -6301 0
-502 -6302 0
-501 -6401 0
-502 -6402 0
-501 -6501 0
-502 -6502 0
-501 -7501 0
-502 -7502 0
-501 -7701 0
-502 -7702 0
-501 -8001 0
-502 -8002 0
-601 -1101 0
-602 -1102 0
-601 -1801 0
-602 -1802 0
-601 -2001 0
-602 -2002 0
-601 -2101 0
-602 -2102 0
-601 -2201 0
-602 -2202 0
-601 -2301 0
-602 -2302 0
-601 -2401 0
-602 -2402 0
-601 -2601 0
-602 -2602 0
-601 -3701 0
-602 -3702 0
-601 -3801 0
-602 -3802 0
-601 -4101 0
-602 -4102 0
-601 -4201 0
-602 -4202 0
-601 -4401 0
-602 -4402 0
-601 -4801 0
-602 -4802 0
-601 -5101 0
-602 -5102 0
-601 -5501 0
-602 -5502 0
-601 -6001 0
-602 -6002 0
-601 -6201 0
-602 -6202 0
-601 -6301 0
-602 -6302 0
-601 -6501 0
-602 -6502 0
-601 -6601 0
-602 -6602 0
-601 -6801 0
-602 -6802 0
-601 -7001 0
-602 -7002 0
-601 -7201 0
-602 -7202 0
-601 -7601 0
-602 -7602 0
-601 -7801 0
-602 -7802 0
-601 -8001 0
-602 -8002 0
-701 -901 0
-702 -902 0
-701 -1501 0
-702 -1502 0
-701 -1701 0
-702 -1702 0
-701 -1801 0
-702 -1802 0
-701 -2301 0
-702 -2302 0
-701 -2601 0
-702 -2602 0
-701 -2701 0
-702 -2702 0
-701 -3001 0
-702 -3002 0
-701 -3501 0
-702 -3502 0
-701 -3601 0
-702 -3602 0
-701 -3901 0
-702 -3902 0
-701 -4001 0
-702 -4002 0
-701 -4201 0
-702 -4202 0
-701 -4801 0
-702 -4802 0
-701 -5101 0
-702 -5102 0
-701 -5201 0
-702 -5202 0
-701 -5301 0
-702 -5302 0
-701 -5501 0
-702 -5502 0
-701 -5601 0
-702 -5602 0
-701 -6101 0
-702 -6102 0
-701 -6301 0
-702 -6302 0
-701 -6501 0
-702 -6502 0
-701 -6701 0
-702 -6702 0
-701 -7101 0
-702 -7102 0
-701 -7401 0
-702 -7402 0
-701 -7701 0
-702 -7702 0
-801 -901 0
-802 -902 0
-801 -1501 0
-802 -1502 0
-801 -1701 0
-802 -1702 0
-801 -1901 0
-802 -1902 0
-801 -2001 0
-802 -2002 0
-801 -2301 0
-802 -2302 0
-801 -2501 0
-802 -2502 0
-801 -3401 0
-802 -3402 0
-801 -3901 0
-802 -3902 0
-801 -4701 0
-802 -4702 0
-801 -5101 0
-802 -5102 0
-801 -5201 0
-802 -5202 0
-801 -5301 0
-802 -5302 0
-801 -5401 0
-802 -5402 0
-801 -5601 0
-802 -5602 0
-801 -5801 0
-802 -5802 0
-801 -6101 0
-802 -6102 0
-801 -6201 0
-802 -6202 0
-801 -6601 0
-802 -6602 0
-801 -6901 0
-802 -6902 0
-801 -7701 0
-802 -7702 0
-801 -8001 0
-802 -8002 0
-901 -1001 0
-902 -1002 0
-901 -1401 0
-902 -1402 0
-901 -1601 0
-902 -1602 0
-901 -1801 0
-902 -1802 0
-901 -1901 0
-902 -1902 0
-901 -2101 0
-902 -2102 0
-901 -2301 0
-902 -2302 0
-901 -2401 0
-902 -2402 0
-901 -2601 0
-902 -2602 0
-901 -2801 0
-902 -2802 0
-901 -3301 0
-902 -3302 0
-901 -3401 0
-902 -3402 0
-901 -3501 0
-902 -3502 0
-901 -4301 0
-902 -4302 0
-901 -4701 0
-902 -4702 0
-901 -5001 0
-902 -5002 0
-901 -5601 0
-902 -5602 0
-901 -6801 0
-902 -6802 0
-901 -6901 0
-902 -6902 0
-901 -7101 0
-902 -7102 0
-901 -7601 0
-902 -7602 0
-901 -7901 0
-902 -7902 0
-1001 -1101 0
-1002 -1102 0
-1001 -1601 0
-1002 -1602 0
-1001 -1801 0
-1002 -1802 0
-1001 -2301 0
-1002 -2302 0
-1001 -3001 0
-1002 -3002 0
-1001 -3101 0
-1002 -3102 0
-1001 -4601 0
-1002 -4602 0
-1001 -4701 0
-1002 -4702 0
-1001 -5001 0
-1002 -5002 0
-1001 -5201 0
-1002 -5202 0
-1001 -5601 0
-1002 -5602 0
-1001 -6101 0
-1002 -6102 0
-1001 -6501 0
-1002 -6502 0
-1001 -7001 0
-1002 -7002 0
-1001 -7201 0
-1002 -7202 0
-1001 -7301 0
-1002 -7302 0
-1001 -7401 0
-1002 -7402 0
-1001 -7501 0
-1002 -7502 0
-1001 -7601 0
-1002 -7602 0
-1101 -1401 0
-1102 -1402 0
-1101 -1801 0
-1102 -1802 0
-1101 -1901 0
-1102 -1902 0
-1101 -2101 0
-1102 -2102 0
-1101 -2201 0
-1102 -2202 0
-1101 -2501 0
-1102 -2502 0
-1101 -3101 0
-1102 -3102 0
-1101 -4001 0
-1102 -4002 0
-1101 -4301 0
-1102 -4302 0
-1101 -4701 0
-1102 -4702 0
-1101 -5601 0
-1102 -5602 0
-1101 -5901 0
-1102 -5902 0
-1101 -6301 0
-1102 -6302 0
-1101 -6401 0
-1102 -6402 0
-1101 -7101 0
-1102 -7102 0
-1101 -7901 0
-1102 -7902 0
-1201 -2001 0
-1202 -2002 0
-1201 -2101 0
-1202 -2102 0
-1201 -2401 0
-1202 -2402 0
-1201 -2801 0
-1202 -2802 0
-1201 -3101 0
-1202 -3102 0
-1201 -3401 0
-1202 -3402 0
-1201 -3501 0
-1202 -3502 0
-1201 -3601 0
-1202 -3602 0
-1201 -3801 0
-1202 -3802 0
-1201 -4101 0
-1202 -4102 0
-1201 -4401 0
-1202 -4402 0
-1201 -4601 0
-1202 -4602 0
-1201 -4801 0
-1202 -4802 0
-1201 -5001 0
-1202 -5002 0
-1201 -5101 0
-1202 -5102 0
-1201 -5201 0
-1202 -5202 0
-1201 -5301 0
-1202 -5302 0
-1201 -6501 0
-1202 -6502 0
-1201 -7901 0
-1202 -7902 0
-1301 -1501 0
-1302 -1502 0
-1301 -1701 0
-1302 -1702 0
-1301 -2101 0
-1302 -2102 0
-1301 -2201 0
-1302 -2202 0
-1301 -2501 0
-1302 -2502 0
-1301 -2601 0
-1302 -2602 0
-1301 -2701 0
-1302 -2702 0
-1301 -3301 0
-1302 -3302 0
-1301 -3401 0
-1302 -3402 0
-1301 -3501 0
-1302 -3502 0
-1301 -3601 0
-1302 -3602 0
-1301 -4301 0
-1302 -4302 0
-1301 -5501 0
-1302 -5502 0
-1301 -5701 0
-1302 -5702 0
-1301 -5801 0
-1302 -5802 0
-1301 -5901 0
-1302 -5902 0
-1301 -6201 0
-1302 -6202 0
-1301 -6301 0
-1302 -6302 0
-1301 -7601 0
-1302 -7602 0
-1301 -7801 0
-1302 -7802 0
-1301 -8001 0
-1302 -8002 0
-1401 -2001 0
-1402 -2002 0
-1401 -2401 0
-1402 -2402 0
-1401 -2501 0
-1402 -2502 0
-1401 -2901 0
-1402 -2902 0
-1401 -3201 0
-1402 -3202 0
-1401 -3501 0
-1402 -3502 0
-1401 -3701 0
-1402 -3702 0
-1401 -3801 0
-1402 -3802 0
-1401 -4301 0
-1402 -4302 0
-1401 -4601 0
-1402 -4602 0
-1401 -5001 0
-1402 -5002 0
-1401 -5201 0
-1402 -5202 0
-1401 -5701 0
-1402 -5702 0
-1401 -6301 0
-1402 -6302 0
-1401 -6401 0
-1402 -6402 0
-1401 -6601 0
-1402 -6602 0
-1401 -6801 0
-1402 -6802 0
-1401 -7101 0
-1402 -7102 0
-1401 -7201 0
-1402 -7202 0
-1401 -7501 0
-1402 -7502 0
-1401 -7601 0
-1402 -7602 0
-1501 -1901 0
-1502 -1902 0
-1501 -2101 0
-1502 -2102 0
-1501 -2201 0
-1502 -2202 0
-1501 -2301 0
-1502 -2302 0
-1501 -2501 0
-1502 -2502 0
-1501 -2601 0
-1502 -2602 0
-1501 -3001 0
-1502 -3002 0
-1501 -3601 0
-1502 -3602 0
-1501 -3801 0
-1502 -3802 0
-1501 -4001 0
-1502 -4002 0
-1501 -4401 0
-1502 -4402 0
-1501 -4701 0
-1502 -4702 0
-1501 -4901 0
-1502 -4902 0
-1501 -5301 0
-1502 -5302 0
-1501 -5601 0
-1502 -5602 0
-1501 -5701 0
-1502 -5702 0
-1501 -5901 0
-1502 -5902 0
-1501 -6201 0
-1502 -6202 0
-1501 -6501 0
-1502 -6502 0
-1501 -6601 0
-1502 -6602 0
-1501 -6701 0
-1502 -6702 0
-1501 -7401 0
-1502 -7402 0
-1501 -7801 0
-1502 -7802 0
-1601 -2401 0
-1602 -2402 0
-1601 -4101 0
-1602 -4102 0
-1601 -4201 0
-1602 -4202 0
-1601 -4501 0
-1602 -4502 0
-1601 -5101 0
-1602 -5102 0
-1601 -5301 0
-1602 -5302 0
-1601 -5701 0
-1602 -5702 0
-1601 -6101 0
-1602 -6102 0
-1601 -6201 0
-1602 -6202 0
-1601 -6701 0
-1602 -6702 0
-1601 -7001 0
-1602 -7002 0
-1601 -7301 0
-1602 -7302 0
-1601 -7501 0
-1602 -7502 0
-1601 -7601 0
-1602 -7602 0
-1601 -7901 0
-1602 -7902 0
-1701 -1901 0
-1702 -1902 0
-1701 -2201 0
-1702 -2202 0
-1701 -2801 0
-1702 -2802 0
-1701 -3601 0
-1702 -3602 0
-1701 -3801 0
-1702 -3802 0
-1701 -4301 0
-1702 -4302 0
-1701 -4801 0
-1702 -4802 0
-1701 -5201 0
-1702 -5202 0
-1701 -5501 0
-1702 -5502 0
-1701 -5601 0
-1702 -5602 0
-1701 -5901 0
-1702 -5902 0
-1701 -6101 0
-1702 -6102 0
-1701 -6501 0
-1702 -6502 0
-1701 -7001 0
-1702 -7002 0
-1701 -7201 0
-1702 -7202 0
-1701 -7701 0
-1702 -7702 0
-1701 -7901 0
-1702 -7902 0
-1801 -1901 0
-1802 -1902 0
-1801 -2101 0
-1802 -2102 0
-1801 -2401 0
-1802 -2402 0
-1801 -2601 0
-1802 -2602 0
-1801 -3101 0
-1802 -3102 0
-1801 -3201 0
-1802 -3202 0
-1801 -3401 0
-1802 -3402 0
-1801 -3501 0
-1802 -3502 0
-1801 -3601 0
-1802 -3602 0
-1801 -4101 0
-1802 -4102 0
-1801 -4201 0
-1802 -4202 0
-1801 -4301 0
-1802 -4302 0
-1801 -5401 0
-1802 -5402 0
-1801 -5601 0
-1802 -5602 0
-1801 -6201 0
-1802 -6202 0
-1801 -6301 0
-1802 -6302 0
-1801 -6401 0
-1802 -6402 0
-1801 -6501 0
-1802 -6502 0
-1801 -6901 0
-1802 -6902 0
-1801 -7001 0
-1802 -7002 0
-1801 -7701 0
-1802 -7702 0
-1901 -2101 0
-1902 -2102 0
-1901 -2701 0
-1902 -2702 0
-1901 -2801 0
-1902 -2802 0
-1901 -2901 0
-1902 -2902 0
-1901 -3001 0
-1902 -3002 0
-1901 -3501 0
-1902 -3502 0
-1901 -4001 0
-1902 -4002 0
-1901 -4101 0
-1902 -4102 0
-1901 -4201 0
-1902 -4202 0
-1901 -4301 0
-1902 -4302 0
-1901 -4701 0
-1902 -4702 0
-1901 -5501 0
-1902 -5502 0
-1901 -5601 0
-1902 -5602 0
-1901 -6001 0
-1902 -6002 0
-1901 -6201 0
-1902 -6202 0
-1901 -6901 0
-1902 -6902 0
-1901 -7701 0
-1902 -7702 0
-1901 -7801 0
-1902 -7802 0
-2001 -2501 0
-2002 -2502 0
-2001 -2701 0
-2002 -2702 0
-2001 -3101 0
-2002 -3102 0
-2001 -3201 0
-2002 -3202 0
-2001 -3501 0
-2002 -3502 0
-2001 -4501 0
-2002 -4502 0
-2001 -4601 0
-2002 -4602 0
-2001 -5301 0
-2002 -5302 0
-2001 -5601 0
-2002 -5602 0
-2001 -5801 0
-2002 -5802 0
-2001 -6101 0
-2002 -6102 0
-2001 -6301 0
-2002 -6302 0
-2001 -7001 0
-2002 -7002 0
-2001 -7301 0
-2002 -7302 0
-2001 -7401 0
-2002 -7402 0
-2001 -7501 0
-2002 -7502 0
-2101 -2201 0
-2102 -2202 0
-2101 -2301 0
-2102 -2302 0
-2101 -2601 0
-2102 -2602 0
-2101 -2901 0
-2102 -2902 0
-2101 -3201 0
-2102 -3202 0
-2101 -3301 0
-2102 -3302 0
-2101 -3901 0
-2102 -3902 0
-2101 -4001 0
-2102 -4002 0
-2101 -4201 0
-2102 -4202 0
-2101 -4401 0
-2102 -4402 0
-2101 -4801 0
-2102 -4802 0
-2101 -4901 0
-2102 -4902 0
-2101 -5001 0
-2102 -5002 0
-2101 -5801 0
-2102 -5802 0
-2101 -5901 0
-2102 -5902 0
-2101 -6101 0
-2102 -6102 0
-2101 -6301 0
-2102 -6302 0
-2101 -6901 0
-2102 -6902 0
-2101 -7201 0
-2102 -7202 0
-2101 -7301 0
-2102 -7302 0
-2101 -7901 0
-2102 -7902 0
-2101 -8001 0
-2102 -8002 0
-2201 -2401 0
-2202 -2402 0
-2201 -2701 0
-2202 -2702 0
-2201 -2801 0
-2202 -2802 0
-2201 -3201 0
-2202 -3202 0
-2201 -3401 0
-2202 -3402 0
-2201 -3701 0
-2202 -3702 0
-2201 -3801 0
-2202 -3802 0
-2201 -4801 0
-2202 -4802 0
-2201 -4901 0
-2202 -4902 0
-2201 -5601 0
-2202 -5602 0
-2201 -6601 0
-2202 -6602 0
-2201 -6701 0
-2202 -6702 0
-2201 -7001 0
-2202 -7002 0
-2201 -7301 0
-2202 -7302 0
-2201 -7501 0
-2202 -7502 0
-2301 -3201 0
-2302 -3202 0
-2301 -3401 0
-2302 -3402 0
-2301 -4001 0
-2302 -4002 0
-2301 -4801 0
-2302 -4802 0
-2301 -5701 0
-2302 -5702 0
-2301 -5901 0
-2302 -5902 0
-2301 -6301 0
-2302 -6302 0
-2301 -6501 0
-2302 -6502 0
-2301 -6601 0
-2302 -6602 0
-2301 -7801 0
-2302 -7802 0
-2401 -2701 0
-2402 -2702 0
-2401 -2901 0
-2402 -2902 0
-2401 -3601 0
-2402 -3602 0
-2401 -4101 0
-2402 -4102 0
-2401 -4201 0
-2402 -4202 0
-2401 -4601 0
-2402 -4602 0
-2401 -4901 0
-2402 -4902 0
-2401 -5101 0
-2402 -5102 0
-2401 -5501 0
-2402 -5502 0
-2401 -5601 0
-2402 -5602 0
-2401 -5801 0
-2402 -5802 0
-2401 -6001 0
-2402 -6002 0
-2401 -6501 0
-2402 -6502 0
-2401 -6801 0
-2402 -6802 0
-2401 -6901 0
-2402 -6902 0
-2401 -7001 0
-2402 -7002 0
-2401 -7201 0
-2402 -7202 0
-2401 -7501 0
-2402 -7502 0
-2401 -7601 0
-2402 -7602 0
-2401 -7701 0
-2402 -7702 0
-2401 -7801 0
-2402 -7802 0
-2501 -2701 0
-2502 -2702 0
-2501 -3001 0
-2502 -3002 0
-2501 -3101 0
-2502 -3102 0
-2501 -3401 0
-2502 -3402 0
-2501 -3701 0
-2502 -3702 0
-2501 -3901 0
-2502 -3902 0
-2501 -4001 0
-2502 -4002 0
-2501 -4201 0
-2502 -4202 0
-2501 -4301 0
-2502 -4302 0
-2501 -4701 0
-2502 -4702 0
-2501 -5401 0
-2502 -5402 0
-2501 -6101 0
-2502 -6102 0
-2501 -6401 0
-2502 -6402 0
-2501 -7601 0
-2502 -7602 0
-2501 -8001 0
-2502 -8002 0
-2601 -3101 0
-2602 -3102 0
-2601 -3801 0
-2602 -3802 0
-2601 -4101 0
-2602 -4102 0
-2601 -4501 0
-2602 -4502 0
-2601 -4701 0
-2602 -4702 0
-2601 -4801 0
-2602 -4802 0
-2601 -5601 0
-2602 -5602 0
-2601 -6001 0
-2602 -6002 0
-2601 -6201 0
-2602 -6202 0
-2601 -6501 0
-2602 -6502 0
-2601 -6601 0
-2602 -6602 0
-2601 -6801 0
-2602 -6802 0
-2601 -7001 0
-2602 -7002 0
-2601 -7101 0
-2602 -7102 0
-2601 -7401 0
-2602 -7402 0
-2701 -2801 0
-2702 -2802 0
-2701 -2901 0
-2702 -2902 0
-2701 -3101 0
-2702 -3102 0
-2701 -3601 0
-2702 -3602 0
-2701 -4101 0
-2702 -4102 0
-2701 -4601 0
-2702 -4602 0
-2701 -4701 0
-2702 -4702 0
-2701 -5101 0
-2702 -5102 0
-2701 -5301 0
-2702 -5302 0
-2701 -5401 0
-2702 -5402 0
-2701 -5801 0
-2702 -5802 0
-2701 -6101 0
-2702 -6102 0
-2701 -6701 0
-2702 -6702 0
-2701 -7201 0
-2702 -7202 0
-2701 -7401 0
-2702 -7402 0
-2701 -7801 0
-2702 -7802 0
-2701 -7901 0
-2702 -7902 0
-2801 -4001 0
-2802 -4002 0
-2801 -4101 0
-2802 -4102 0
-2801 -4401 0
-2802 -4402 0
-2801 -5001 0
-2802 -5002 0
-2801 -5101 0
-2802 -5102 0
-2801 -5401 0
-2802 -5402 0
-2801 -5501 0
-2802 -5502 0
-2801 -6001 0
-2802 -6002 0
-2801 -6101 0
-2802 -6102 0
-2801 -6801 0
-2802 -6802 0
-2801 -6901 0
-2802 -6902 0
-2801 -7101 0
-2802 -7102 0
-2801 -7301 0
-2802 -7302 0
-2801 -7401 0
-2802 -7402 0
-2801 -7601 0
-2802 -7602 0
-2801 -7701 0
-2802 -7702 0
-2901 -3201 0
-2902 -3202 0
-2901 -3401 0
-2902 -3402 0
-2901 -3701 0
-2902 -3702 0
-2901 -3801 0
-2902 -3802 0
-2901 -3901 0
-2902 -3902 0
-2901 -4301 0
-2902 -4302 0
-2901 -4401 0
-2902 -4402 0
-2901 -5101 0
-2902 -5102 0
-2901 -6201 0
-2902 -6202 0
-2901 -6601 0
-2902 -6602 0
-2901 -6901 0
-2902 -6902 0
-2901 -7201 0
-2902 -7202 0
-2901 -7301 0
-2902 -7302 0
-2901 -7401 0
-2902 -7402 0
-2901 -7601 0
-2902 -7602 0
-2901 -7701 0
-2902 -7702 0
-3001 -3201 0
-3002 -3202 0
-3001 -3401 0
-3002 -3402 0
-3001 -3501 0
-3002 -3502 0
-3001 -3601 0
-3002 -3602 0
-3001 -4001 0
-3002 -4002 0
-3001 -4201 0
-3002 -4202 0
-3001 -4701 0
-3002 -4702 0
-3001 -5001 0
-3002 -5002 0
-3001 -5101 0
-3002 -5102 0
-3001 -5401 0
-3002 -5402 0
-3001 -5501 0
-3002 -5502 0
-3001 -6501 0
-3002 -6502 0
-3001 -6601 0
-3002 -6602 0
-3001 -6801 0
-3002 -6802 0
-3001 -7201 0
-3002 -7202 0
-3001 -7401 0
-3002 -7402 0
-3001 -7501 0
-3002 -7502 0
-3001 -7701 0
-3002 -7702 0
-3101 -3701 0
-3102 -3702 0
-3101 -4001 0
-3102 -4002 0
-3101 -4501 0
-3102 -4502 0
-3101 -4601 0
-3102 -4602 0
-3101 -4801 0
-3102 -4802 0
-3101 -5101 0
-3102 -5102 0
-3101 -5401 0
-3102 -5402 0
-3101 -5501 0
-3102 -5502 0
-3101 -5701 0
-3102 -5702 0
-3101 -5901 0
-3102 -5902 0
-3101 -6001 0
-3102 -6002 0
-3101 -6201 0
-3102 -6202 0
-3101 -6301 0
-3102 -6302 0
-3101 -6401 0
-3102 -6402 0
-3101 -6601 0
-3102 -6602 0
-3101 -7201 0
-3102 -7202 0
-3101 -7401 0
-3102 -7402 0
-3101 -7901 0
-3102 -7902 0
-3201 -3301 0
-3202 -3302 0
-3201 -3401 0
-3202 -3402 0
-3201 -4201 0
-3202 -4202 0
-3201 -4301 0
-3202 -4302 0
-3201 -4701 0
-3202 -4702 0
-3201 -5401 0
-3202 -5402 0
-3201 -5601 0
-3202 -5602 0
-3201 -6001 0
-3202 -6002 0
-3201 -7001 0
-3202 -7002 0
-3201 -7201 0
-3202 -7202 0
-3201 -7701 0
-3202 -7702 0
-3201 -7801 0
-3202 -7802 0
-3301 -3401 0
-3302 -3402 0
-3301 -3501 0
-3302 -3502 0
-3301 -4101 0
-3302 -4102 0
-3301 -4401 0
-3302 -4402 0
-3301 -4901 0
-3302 -4902 0
-3301 -5001 0
-3302 -5002 0
-3301 -5201 0
-3302 -5202 0
-3301 -5401 0
-3302 -5402 0
-3301 -5601 0
-3302 -5602 0
-3301 -5701 0
-3302 -5702 0
-3301 -6001 0
-3302 -6002 0
-3301 -6101 0
-3302 -6102 0
-3301 -6701 0
-3302 -6702 0
-3301 -6801 0
-3302 -6802 0
-3301 -7501 0
-3302 -7502 0
-3401 -3501 0
-3402 -3502 0
-3401 -4101 0
-3402 -4102 0
-3401 -5601 0
-3402 -5602 0
-3401 -5801 0
-3402 -5802 0
-3401 -5901 0
-3402 -5902 0
-3401 -6601 0
-3402 -6602 0
-3401 -6901 0
-3402 -6902 0
-3401 -7301 0
-3402 -7302 0
-3401 -7501 0
-3402 -7502 0
-3401 -7901 0
-3402 -7902 0
-3501 -3701 0
-3502 -3702 0
-3501 -4201 0
-3502 -4202 0
-3501 -4601 0
-3502 -4602 0
-3501 -4801 0
-3502 -4802 0
-3501 -5401 0
-3502 -5402 0
-3501 -5501 0
-3502 -5502 0
-3501 -6001 0
-3502 -6002 0
-3501 -6201 0
-3502 -6202 0
-3501 -6301 0
-3502 -6302 0
-3501 -7101 0
-3502 -7102 0
-3501 -7701 0
-3502 -7702 0
-3601 -4401 0
-3602 -4402 0
-3601 -4701 0
-3602 -4702 0
-3601 -5001 0
-3602 -5002 0
-3601 -5601 0
-3602 -5602 0
-3601 -5701 0
-3602 -5702 0
-3601 -6001 0
-3602 -6002 0
-3601 -6601 0
-3602 -6602 0
-3601 -7001 0
-3602 -7002 0
-3601 -7301 0
-3602 -7302 0
-3601 -7601 0
-3602 -7602 0
-3601 -7801 0
-3602 -7802 0
-3701 -4301 0
-3702 -4302 0
-3701 -4501 0
-3702 -4502 0
-3701 -4701 0
-3702 -4702 0
-3701 -4801 0
-3702 -4802 0
-3701 -4901 0
-3702 -4902 0
-3701 -5301 0
-3702 -5302 0
-3701 -5501 0
-3702 -5502 0
-3701 -5901 0
-3702 -5902 0
-3701 -6201 0
-3702 -6202 0
-3701 -7201 0
-3702 -7202 0
-3701 -7401 0
-3702 -7402 0
-3701 -7701 0
-3702 -7702 0
-3801 -4101 0
-3802 -4102 0
-3801 -4301 0
-3802 -4302 0
-3801 -4601 0
-3802 -4602 0
-3801 -4901 0
-3802 -4902 0
-3801 -5301 0
-3802 -5302 0
-3801 -5701 0
-3802 -5702 0
-3801 -6201 0
-3802 -6202 0
-3801 -6301 0
-3802 -6302 0
-3801 -6701 0
-3802 -6702 0
-3801 -7501 0
-3802 -7502 0
-3801 -7601 0
-3802 -7602 0
-3801 -8001 0
-3802 -8002 0
-3901 -4001 0
-3902 -4002 0
-3901 -4201 0
-3902 -4202 0
-3901 -4401 0
-3902 -4402 0
-3901 -4501 0
-3902 -4502 0
-3901 -4901 0
-3902 -4902 0
-3901 -5701 0
-3902 -5702 0
-3901 -6001 0
-3902 -6002 0
-3901 -6301 0
-3902 -6302 0
-3901 -6901 0
-3902 -6902 0
-3901 -7501 0
-3902 -7502 0
-3901 -7601 0
-3902 -7602 0
-3901 -7701 0
-3902 -7702 0
-3901 -7901 0
-3902 -7902 0
-4001 -4301 0
-4002 -4302 0
-4001 -4501 0
-4002 -4502 0
-4001 -4901 0
-4002 -4902 0
-4001 -5201 0
-4002 -5202 0
-4001 -5601 0
-4002 -5602 0
-4001 -5801 0
-4002 -5802 0
-4001 -6001 0
-4002 -6002 0
-4001 -6401 0
-4002 -6402 0
-4001 -6601 0
-4002 -6602 0
-4001 -7001 0
-4002 -7002 0
-4001 -7901 0
-4002 -7902 0
-4001 -8001 0
-4002 -8002 0
-4101 -4501 0
-4102 -4502 0
-4101 -4901 0
-4102 -4902 0
-4101 -5201 0
-4102 -5202 0
-4101 -5701 0
-4102 -5702 0
-4101 -5801 0
-4102 -5802 0
-4101 -5901 0
-4102 -5902 0
-4101 -6201 0
-4102 -6202 0
-4101 -6401 0
-4102 -6402 0
-4101 -7001 0
-4102 -7002 0
-4101 -7101 0
-4102 -7102 0
-4101 -7201 0
-4102 -7202 0
-4201 -4301 0
-4202 -4302 0
-4201 -4401 0
-4202 -4402 0
-4201 -4701 0
-4202 -4702 0
-4201 -4801 0
-4202 -4802 0
-4201 -5101 0
-4202 -5102 0
-4201 -5301 0
-4202 -5302 0
-4201 -5701 0
-4202 -5702 0
-4201 -6401 0
-4202 -6402 0
-4201 -6601 0
-4202 -6602 0
-4201 -6701 0
-4202 -6702 0
-4201 -7301 0
-4202 -7302 0
-4301 -4401 0
-4302 -4402 0
-4301 -4801 0
-4302 -4802 0
-4301 -5101 0
-4302 -5102 0
-4301 -5601 0
-4302 -5602 0
-4301 -5701 0
-4302 -5702 0
-4301 -6001 0
-4302 -6002 0
-4301 -6401 0
-4302 -6402 0
-4301 -6501 0
-4302 -6502 0
-4301 -6901 0
-4302 -6902 0
-4301 -7401 0
-4302 -7402 0
-4301 -7501 0
-4302 -7502 0
-4301 -7601 0
-4302 -7602 0
-4401 -4701 0
-4402 -4702 0
-4401 -4801 0
-4402 -4802 0
-4401 -5501 0
-4402 -5502 0
-4401 -5901 0
-4402 -5902 0
-4401 -6101 0
-4402 -6102 0
-4401 -7401 0
-4402 -7402 0
-4401 -7901 0
-4402 -7902 0
-4401 -8001 0
-4402 -8002 0
-4501 -4901 0
-4502 -4902 0
-4501 -5401 0
-4502 -5402 0
-4501 -5601 0
-4502 -5602 0
-4501 -5901 0
-4502 -5902 0
-4501 -6201 0
-4502 -6202 0
-4501 -6501 0
-4502 -6502 0
-4501 -6801 0
-4502 -6802 0
-4501 -6901 0
-4502 -6902 0
-4501 -7401 0
-4502 -7402 0
-4501 -7501 0
-4502 -7502 0
-4501 -7701 0
-4502 -7702 0
-4501 -7901 0
-4502 -7902 0
-4501 -8001 0
-4502 -8002 0
-4601 -4701 0
-4602 -4702 0
-4601 -4801 0
-4602 -4802 0
-4601 -5001 0
-4602 -5002 0
-4601 -5501 0
-4602 -5502 0
-4601 -5701 0
-4602 -5702 0
-4601 -6001 0
-4602 -6002 0
-4601 -6301 0
-4602 -6302 0
-4601 -6401 0
-4602 -6402 0
-4601 -6901 0
-4602 -6902 0
-4601 -7301 0
-4602 -7302 0
-4601 -7501 0
-4602 -7502 0
-4601 -7901 0
-4602 -7902 0
-4701 -4901 0
-4702 -4902 0
-4701 -5001 0
-4702 -5002 0
-4701 -5801 0
-4702 -5802 0
-4701 -6401 0
-4702 -6402 0
-4701 -6701 0
-4702 -6702 0
-4701 -6801 0
-4702 -6802 0
-4701 -7901 0
-4702 -7902 0
-4801 -5201 0
-4802 -5202 0
-4801 -5301 0
-4802 -5302 0
-4801 -5401 0
-4802 -5402 0
-4801 -6301 0
-4802 -6302 0
-4801 -6601 0
-4802 -6602 0
-4801 -6801 0
-4802 -6802 0
-4801 -6901 0
-4802 -6902 0
-4801 -7001 0
-4802 -7002 0
-4801 -7101 0
-4802 -7102 0
-4801 -7401 0
-4802 -7402 0
-4801 -7501 0
-4802 -7502 0
-4801 -7801 0
-4802 -7802 0
-4901 -5001 0
-4902 -5002 0
-4901 -5501 0
-4902 -5502 0
-4901 -5901 0
-4902 -5902 0
-4901 -7301 0
-4902 -7302 0
-4901 -7401 0
-4902 -7402 0
-4901 -8001 0
-4902 -8002 0
-5001 -5301 0
-5002 -5302 0
-5001 -6601 0
-5002 -6602 0
-5001 -7501 0
-5002 -7502 0
-5001 -7601 0
-5002 -7602 0
-5001 -7801 0
-5002 -7802 0
-5001 -7901 0
-5002 -7902 0
-5101 -5201 0
-5102 -5202 0
-5101 -5501 0
-5102 -5502 0
-5101 -5601 0
-5102 -5602 0
-5101 -5801 0
-5102 -5802 0
-5101 -6001 0
-5102 -6002 0
-5101 -6301 0
-5102 -6302 0
-5101 -6401 0
-5102 -6402 0
-5101 -7201 0
-5102 -7202 0
-5101 -7501 0
-5102 -7502 0
-5101 -7801 0
-5102 -7802 0
-5201 -5401 0
-5202 -5402 0
-5201 -5801 0
-5202 -5802 0
-5201 -5901 0
-5202 -5902 0
-5201 -6001 0
-5202 -6002 0
-5201 -6201 0
-5202 -6202 0
-5201 -6501 0
-5202 -6502 0
-5201 -7101 0
-5202 -7102 0
-5201 -7201 0
-5202 -7202 0
-5201 -7301 0
-5202 -7302 0
-5201 -7401 0
-5202 -7402 0
-5201 -7601 0
-5202 -7602 0
-5301 -5501 0
-5302 -5502 0
-5301 -6301 0
-5302 -6302 0
-5301 -6401 0
-5302 -6402 0
-5301 -7401 0
-5302 -7402 0
-5301 -7601 0
-5302 -7602 0
-5301 -7701 0
-5302 -7702 0
-5401 -5701 0
-5402 -5702 0
-5401 -6201 0
-5402 -6202 0
-5401 -6801 0
-5402 -6802 0
-5401 -6901 0
-5402 -6902 0
-5401 -7001 0
-5402 -7002 0
-5401 -7301 0
-5402 -7302 0
-5401 -7401 0
-5402 -7402 0
-5401 -7501 0
-5402 -7502 0
-5401 -8001 0
-5402 -8002 0
-5501 -6001 0
-5502 -6002 0
-5501 -6201 0
-5502 -6202 0
-5501 -6801 0
-5502 -6802 0
-5501 -7001 0
-5502 -7002 0
-5501 -7101 0
-5502 -7102 0
-5501 -7201 0
-5502 -7202 0
-5501 -7501 0
-5502 -7502 0
-5501 -7701 0
-5502 -7702 0
-5501 -7901 0
-5502 -7902 0
-5601 -5901 0
-5602 -5902 0
-5601 -6101 0
-5602 -6102 0
-5601 -7001 0
-5602 -7002 0
-5601 -7101 0
-5602 -7102 0
-5601 -7201 0
-5602 -7202 0
-5601 -7301 0
-5602 -7302 0
-5601 -7401 0
-5602 -7402 0
-5601 -7901 0
-5602 -7902 0
-5701 -5901 0
-5702 -5902 0
-5701 -6001 0
-5702 -6002 0
-5701 -6301 0
-5702 -6302 0
-5701 -6601 0
-5702 -6602 0
-5701 -6701 0
-5702 -6702 0
-5701 -8001 0
-5702 -8002 0
-5801 -6001 0
-5802 -6002 0
-5801 -6201 0
-5802 -6202 0
-5801 -6701 0
-5802 -6702 0
-5801 -6801 0
-5802 -6802 0
-5801 -7301 0
-5802 -7302 0
-5801 -7701 0
-5802 -7702 0
-5901 -6501 0
-5902 -6502 0
-5901 -6601 0
-5902 -6602 0
-5901 -6701 0
-5902 -6702 0
-5901 -6801 0
-5902 -6802 0
-5901 -6901 0
-5902 -6902 0
-5901 -7201 0
-5902 -7202 0
-5901 -7301 0
-5902 -7302 0
-5901 -8001 0
-5902 -8002 0
-6001 -6201 0
-6002 -6202 0
-6001 -6301 0
-6002 -6302 0
-6001 -6701 0
-6002 -6702 0
-6001 -6801 0
-6002 -6802 0
-6001 -7301 0
-6002 -7302 0
-6001 -7401 0
-6002 -7402 0
-6001 -7601 0
-6002 -7602 0
-6101 -6501 0
-6102 -6502 0
-6101 -6801 0
-6102 -6802 0
-6101 -8001 0
-6102 -8002 0
-6201 -6601 0
-6202 -6602 0
-6201 -6801 0
-6202 -6802 0
-6201 -7201 0
-6202 -7202 0
-6201 -7301 0
-6202 -7302 0
-6201 -7401 0
-6202 -7402 0
-6201 -7801 0
-6202 -7802 0
-6201 -7901 0
-6202 -7902 0
-6301 -6601 0
-6302 -6602 0
-6301 -6901 0
-6302 -6902 0
-6301 -7801 0
-6302 -7802 0
-6401 -6601 0
-6402 -6602 0
-6401 -7501 0
-6402 -7502 0
-6401 -7801 0
-6402 -7802 0
-6401 -8001 0
-6402 -8002 0
-6501 -6601 0
-6502 -6602 0
-6501 -6901 0
-6502 -6902 0
-6501 -7601 0
-6502 -7602 0
-6501 -7701 0
-6502 -7702 0
-6601 -7001 0
-6602 -7002 0
-6601 -7601 0
-6602 -7602 0
-6601 -8001 0
-6602 -8002 0
-6701 -6801 0
-6702 -6802 0
-6701 -7001 0
-6702 -7002 0
-6701 -7101 0
-6702 -7102 0
-6801 -6901 0
-6802 -6902 0
-6801 -7201 0
-6802 -7202 0
-6801 -7501 0
-6802 -7502 0
-6901 -7001 0
-6902 -7002 0
-6901 -7701 0
-6902 -7702 0
-6901 -7801 0
-6902 -7802 0
-7001 -7501 0
-7002 -7502 0
-7001 -8001 0
-7002 -8002 0
-7101 -8001 0
-7102 -8002 0
-7201 -7601 0
-7202 -7602 0
-7201 -7701 0
-7202 -7702 0
-7201 -7801 0
-7202 -7802 0
-7201 -8001 0
-7202 -8002 0
-7401 -7601 0
-7402 -7602 0
-7401 -7701 0
-7402 -7702 0
-7401 -7901 0
-7402 -7902 0
-7401 -8001 0
-7402 -8002 0
-7601 -7801 0
-7602 -7802 0
-7901 -8001 0
-7902 -8002 0
